
******************************************************************************
This program contains Ipopt, a library for large-scale nonlinear optimization.
 Ipopt is released as open source code under the Eclipse Public License (EPL).
         For more information visit http://projects.coin-or.org/Ipopt

This version of Ipopt was compiled from source code available at
    https://github.com/IDAES/Ipopt as part of the Institute for the Design of
    Advanced Energy Systems Process Systems Engineering Framework (IDAES PSE
    Framework) Copyright (c) 2018-2019. See https://github.com/IDAES/idaes-pse.

This version of Ipopt was compiled using HSL, a collection of Fortran codes
    for large-scale scientific computation.  All technical papers, sales and
    publicity material resulting from use of the HSL codes within IPOPT must
    contain the following acknowledgement:
        HSL, a collection of Fortran codes for large-scale scientific
        computation. See http://www.hsl.rl.ac.uk.
******************************************************************************

This is Ipopt version 3.13.2, running with linear solver ma27.

Number of nonzeros in equality constraint Jacobian...:      958
Number of nonzeros in inequality constraint Jacobian.:        0
Number of nonzeros in Lagrangian Hessian.............:      832

Total number of variables............................:      416
                     variables with only lower bounds:      128
                variables with lower and upper bounds:      224
                     variables with only upper bounds:        0
Total number of equality constraints.................:      415
Total number of inequality constraints...............:        0
        inequality constraints with only lower bounds:        0
   inequality constraints with lower and upper bounds:        0
        inequality constraints with only upper bounds:        0

iter    objective    inf_pr   inf_du lg(mu)  ||d||  lg(rg) alpha_du alpha_pr  ls
   0  0.0000000e+00 9.56e-01 1.20e-13  -1.0 0.00e+00    -  0.00e+00 0.00e+00   0
   1  1.0801603e+01 9.33e-01 6.00e+05  -1.0 1.29e+07    -  3.29e-02 1.82e-02h  3
   2  1.8805613e+01 9.28e-01 6.33e+05  -1.0 1.98e+07    -  2.82e-02 4.88e-03h  5
   3  2.1977978e+01 9.27e-01 6.34e+05  -1.0 2.33e+07    -  2.61e-02 1.47e-03h  7
   4  2.3754510e+01 9.26e-01 6.34e+05  -1.0 2.51e+07    -  2.51e-02 7.36e-04h  8
   5  2.5416423e+01 9.25e-01 6.35e+05  -1.0 2.84e+07    -  2.58e-02 6.16e-04h  8
   6  9.4233995e+02 8.59e-01 1.04e+07  -1.0 3.04e+07    -  2.47e-02 7.19e-02h  1
   7  9.6591906e+02 8.58e-01 1.04e+07  -1.0 4.18e+07    -  4.19e-02 6.22e-04h  1
   8r 9.6591906e+02 8.58e-01 9.99e+02  -0.1 0.00e+00    -  0.00e+00 3.96e-07R  5
   9r 9.6592375e+02 1.87e+00 9.90e+02  -0.1 4.21e+03    -  2.98e-03 9.23e-03f  1
iter    objective    inf_pr   inf_du lg(mu)  ||d||  lg(rg) alpha_du alpha_pr  ls
  10r 9.6592703e+02 1.86e+00 9.84e+02  -0.1 3.16e+03    -  1.85e-02 5.85e-03f  1
  11r 9.6593346e+02 1.84e+00 9.73e+02  -0.1 2.41e+03    -  4.98e-02 1.11e-02f  1
  12r 9.6593497e+02 1.83e+00 9.66e+02  -0.1 2.73e+03    -  1.75e-02 7.45e-03f  1
  13r 9.6594733e+02 1.80e+00 9.55e+02  -0.1 1.88e+03    -  1.76e-03 1.77e-02f  1
  14r 9.6594733e+02 1.74e+00 9.17e+02  -0.1 5.76e+01   0.0 6.85e-02 3.39e-02f  1
  15r 9.6594904e+02 1.72e+00 9.10e+02  -0.1 2.86e+03    -  7.91e-03 6.89e-03f  1
  16r 9.6595036e+02 1.71e+00 9.18e+02  -0.1 2.87e+03    -  4.10e-03 8.31e-03f  1
  17r 9.6595358e+02 1.69e+00 9.28e+02  -0.1 2.35e+03    -  9.81e-03 1.24e-02f  1
  18r 9.6596443e+02 1.66e+00 9.19e+02  -0.1 2.18e+03    -  9.62e-03 1.58e-02f  1
  19r 9.6596668e+02 1.65e+00 9.03e+02  -0.1 1.17e+03    -  1.77e-02 9.25e-03f  1
iter    objective    inf_pr   inf_du lg(mu)  ||d||  lg(rg) alpha_du alpha_pr  ls
  20r 9.6596881e+02 1.62e+00 8.95e+02  -0.1 1.08e+03    -  8.56e-03 1.69e-02f  1
  21r 9.6596969e+02 1.60e+00 8.86e+02  -0.1 5.98e+02    -  1.04e-02 1.12e-02f  1
  22r 9.6597046e+02 1.58e+00 8.52e+02  -0.1 3.59e+02    -  3.91e-02 1.26e-02f  1
  23r 9.6597334e+02 1.50e+00 7.94e+02  -0.1 3.46e+02    -  1.09e-01 4.90e-02f  1
  24r 9.6599128e+02 1.34e+00 7.49e+02  -0.1 9.69e+02    -  4.04e-02 1.06e-01f  1
  25r 9.6602276e+02 1.18e+00 7.30e+02  -0.1 1.74e+03    -  8.36e-02 1.23e-01f  1
  26r 9.6602276e+02 1.17e+00 8.48e+02  -0.1 6.74e+02  -0.5 2.21e-01 4.68e-03f  1
  27r 9.6602462e+02 1.14e+00 7.86e+02  -0.1 1.98e+03    -  3.70e-02 2.72e-02f  1
  28r 9.6602578e+02 1.03e+00 7.45e+02  -0.1 2.04e+03    -  4.61e-02 9.23e-02f  1
  29r 9.6602578e+02 1.03e+00 7.44e+02  -0.1 2.70e+03  -1.0 4.87e-04 7.85e-04f  1
iter    objective    inf_pr   inf_du lg(mu)  ||d||  lg(rg) alpha_du alpha_pr  ls
  30r 9.6602578e+02 9.52e-01 6.84e+02  -0.1 1.39e+01  -0.5 8.20e-02 7.91e-02f  1
  31r 9.6602578e+02 8.86e-01 6.05e+02  -0.1 1.85e+01  -1.0 1.31e-01 6.92e-02f  1
  32r 9.6602578e+02 7.10e-01 3.90e+02  -0.1 6.64e+00  -0.6 3.61e-01 3.38e-01f  1
  33  9.6604399e+02 7.10e-01 3.67e+05  -1.0 9.53e+07    -  4.30e-02 2.49e-05h  1
  34  9.3699507e+02 6.34e+00 2.14e+06  -1.0 1.64e+08    -  2.58e-02 1.18e-03f  3
  35  9.0777937e+02 6.33e+00 3.31e+06  -1.0 1.39e+08    -  3.12e-02 1.67e-03f  3
  36  9.0247137e+02 6.32e+00 9.40e+06  -1.0 1.41e+08    -  3.07e-02 3.42e-04f  5
  37  8.9487195e+02 6.32e+00 1.77e+07  -1.0 1.41e+08    -  3.34e-02 5.76e-04f  5
  38  8.7671197e+02 6.31e+00 2.29e+07  -1.0 1.06e+08    -  3.62e-02 2.20e-03f  3
  39  8.7344800e+02 4.11e+01 1.26e+09  -1.0 1.14e+08    -  3.94e-02 6.65e-03f  1
iter    objective    inf_pr   inf_du lg(mu)  ||d||  lg(rg) alpha_du alpha_pr  ls
  40  8.5627841e+02 4.10e+01 1.25e+09  -1.0 1.52e+08    -  3.30e-02 3.82e-03f  2
  41  8.5273749e+02 4.43e+01 1.25e+09  -1.0 1.03e+08    -  1.85e-02 4.74e-03F  1
  42  8.5213989e+02 4.42e+01 1.25e+09  -1.0 1.75e+08    -  2.33e-02 2.31e-03f  3
  43  8.5821832e+02 4.41e+01 1.24e+09  -1.0 1.21e+08    -  2.02e-02 1.13e-03h  3
  44  8.5955478e+02 4.41e+01 1.24e+09  -1.0 1.81e+08    -  1.55e-02 2.84e-04h  4
  45  8.5957718e+02 4.41e+01 1.24e+09  -1.0 2.52e+08    -  1.15e-02 1.12e-05h  8
  46  8.5997631e+02 4.41e+01 1.24e+09  -1.0 1.77e+08    -  2.01e-03 6.19e-05h  8
  47r 8.5997631e+02 4.41e+01 1.00e+03   1.6 0.00e+00    -  0.00e+00 3.63e-07R 12
  48r 8.5997483e+02 7.21e+00 9.94e+02   1.6 1.33e+04    -  9.17e-03 3.27e-03f  1
  49r 8.5997483e+02 7.21e+00 9.99e+02   0.9 0.00e+00    -  0.00e+00 8.57e-08R  2
iter    objective    inf_pr   inf_du lg(mu)  ||d||  lg(rg) alpha_du alpha_pr  ls
  50r 8.5997390e+02 4.28e+00 9.97e+02   0.9 5.75e+03    -  4.00e-03 1.24e-03f  1
  51  8.5899906e+02 4.28e+00 1.37e+04  -1.0 2.24e+08    -  1.20e-02 3.26e-04f  1
  52  8.9223160e+02 4.27e+00 2.20e+04  -1.0 4.24e+07    -  2.77e-02 3.61e-03h  2
  53  9.0319151e+02 4.26e+00 1.09e+05  -1.0 7.11e+07    -  2.20e-02 1.73e-03h  2
  54  9.0458669e+02 4.26e+00 2.36e+05  -1.0 1.19e+08    -  1.52e-02 4.25e-04h  3
  55  9.0533425e+02 4.26e+00 1.80e+06  -1.0 1.63e+08    -  2.32e-02 3.17e-04h  3
  56  9.0543991e+02 4.26e+00 1.63e+07  -1.0 2.52e+08    -  7.62e-03 1.17e-04h  4
  57  9.0542320e+02 4.26e+00 1.14e+09  -1.0 3.66e+08    -  3.86e-02 3.52e-05h  5
  58  9.0537323e+02 4.26e+00 6.91e+09  -1.0 4.59e+08    -  3.28e-03 3.96e-05f  5
  59  9.0532684e+02 4.26e+00 2.57e+11  -1.0 7.24e+08    -  3.86e-02 1.20e-05f  6
iter    objective    inf_pr   inf_du lg(mu)  ||d||  lg(rg) alpha_du alpha_pr  ls
  60  9.0522327e+02 4.26e+00 2.79e+11  -1.0 1.01e+09    -  1.38e-03 1.66e-05f  5
  61  9.0515569e+02 4.26e+00 1.62e+12  -1.0 4.85e+09    -  1.85e-03 1.63e-06f  6
  62  9.7009178e+02 4.26e+00 5.25e+14  -1.0 5.66e+09    -  4.31e-05 2.28e-04w  1
  63  9.7297044e+02 4.26e+00 5.25e+14  -1.0 1.21e+08    -  4.05e-02 5.01e-04w  1
  64  9.7299188e+02 4.26e+00 5.25e+14  -1.0 1.38e+08    -  4.20e-05 4.98e-06w  1
  65r 9.0515569e+02 4.26e+00 1.00e+03   0.6 0.00e+00    -  0.00e+00 1.33e-14R 34
  66r 9.0515429e+02 4.25e+00 9.98e+02   0.6 5.37e+03    -  8.72e-03 1.38e-03f  1
  67r 9.0515189e+02 4.12e+00 9.89e+02   0.6 4.27e+03    -  5.31e-03 8.66e-03f  1
  68r 9.0515143e+02 3.90e+00 9.86e+02   0.6 8.40e+03    -  3.47e-03 2.87e-03f  1
  69r 9.0515128e+02 3.53e+00 9.83e+02   0.6 3.19e+03    -  3.51e-03 2.85e-03f  1
iter    objective    inf_pr   inf_du lg(mu)  ||d||  lg(rg) alpha_du alpha_pr  ls
  70r 9.0515128e+02 3.53e+00 9.99e+02   0.5 0.00e+00    -  0.00e+00 4.26e-08R  2
  71r 9.0515089e+02 3.27e+00 9.88e+02   0.5 1.61e+03    -  2.21e-02 1.05e-02f  1
  72r 9.0515085e+02 2.53e+00 9.75e+02   0.5 2.14e+03    -  1.63e-02 1.31e-02f  1
  73  9.0662892e+02 2.53e+00 1.08e+05  -1.0 4.05e+07    -  6.52e-02 6.33e-05h  1
  74r 9.0662892e+02 2.53e+00 1.00e+03   0.4 0.00e+00    -  0.00e+00 3.15e-07R 11
  75r 9.0662878e+02 1.27e+00 9.88e+02   0.4 4.02e+03    -  1.29e-02 1.07e-02f  1
  76r 9.0662878e+02 1.27e+00 9.99e+02   0.1 0.00e+00    -  0.00e+00 3.24e-07R  2
  77r 9.0662867e+02 6.95e-01 9.91e+02   0.1 2.52e+03    -  2.69e-02 8.29e-03f  1
  78r 9.0662867e+02 6.95e-01 9.99e+02  -0.2 0.00e+00    -  0.00e+00 3.23e-07R  6
  79r 9.0662855e+02 6.94e-01 9.97e+02  -0.2 3.09e+03    -  2.68e-02 2.87e-03f  1
iter    objective    inf_pr   inf_du lg(mu)  ||d||  lg(rg) alpha_du alpha_pr  ls
  80r 9.0662753e+02 6.88e-01 9.72e+02  -0.2 8.00e+02    -  2.49e-02 2.52e-02f  1
  81r 9.0662684e+02 6.85e-01 9.53e+02  -0.2 7.29e+02    -  1.34e-01 1.95e-02f  1
  82r 9.0663095e+02 6.67e-01 8.37e+02  -0.2 5.43e+02    -  4.34e-02 1.21e-01f  1
  83r 9.0664214e+02 6.31e-01 7.31e+02  -0.2 1.48e+02    -  1.25e-01 2.60e-01f  1
  84r 9.0664214e+02 6.26e-01 4.36e+02  -0.2 1.59e+00   0.0 8.97e-01 2.97e-01f  1
  85r 9.0664214e+02 4.76e+00 1.21e+02  -0.2 6.69e+00  -0.5 8.49e-01 1.00e+00f  1
  86r 9.0664214e+02 3.31e+00 4.68e+02  -0.2 4.14e+01  -0.1 9.90e-01 3.05e-01f  1
  87r 9.0664214e+02 3.28e+00 7.62e+02  -0.2 3.14e+01  -0.5 3.63e-01 9.66e-03f  1
  88r 9.0664213e+02 2.62e+00 6.25e+02  -0.2 6.90e+00  -1.0 1.85e-01 2.01e-01f  1
  89r 9.0664213e+02 1.40e+00 2.33e+03  -0.2 2.62e+00  -0.6 1.36e-01 4.66e-01f  1
iter    objective    inf_pr   inf_du lg(mu)  ||d||  lg(rg) alpha_du alpha_pr  ls
  90r 9.0664213e+02 1.26e+00 2.10e+03  -0.2 2.70e+01  -1.1 3.40e-02 9.71e-02f  1
  91r 9.0664213e+02 1.22e+00 2.04e+03  -0.2 2.01e+01  -1.5 1.41e-01 3.11e-02f  1
  92r 9.0664213e+02 1.01e+00 1.67e+03  -0.2 1.26e+02  -2.0 5.21e-02 1.77e-01f  1
  93r 9.0664213e+02 9.36e-01 1.55e+03  -0.2 9.89e-01   3.8 7.55e-02 7.26e-02f  1
  94r 9.0664213e+02 6.22e-01 2.03e+03  -0.2 6.76e-01   3.4 6.86e-03 9.89e-01h  1
  95  9.2210665e+02 6.21e-01 2.11e+03  -1.0 4.05e+07    -  3.82e-02 7.96e-04h  1
  96  9.2204410e+02 6.21e-01 2.22e+04  -1.0 1.70e+08    -  2.28e-02 4.65e-05h  1
  97  9.1943187e+02 6.21e-01 8.19e+04  -1.0 1.96e+08    -  1.84e-02 6.12e-04f  4
  98  9.1857967e+02 6.20e-01 2.50e+05  -1.0 1.81e+08    -  2.51e-02 5.31e-04f  4
  99  9.1846395e+02 6.20e-01 7.04e+05  -1.0 1.86e+08    -  3.74e-02 2.31e-04f  5
iter    objective    inf_pr   inf_du lg(mu)  ||d||  lg(rg) alpha_du alpha_pr  ls
 100  9.1846752e+02 6.20e-01 2.50e+06  -1.0 2.04e+08    -  3.71e-02 2.16e-04h  5
 101  9.1854479e+02 6.20e-01 6.61e+06  -1.0 2.24e+08    -  2.88e-02 2.02e-04h  5
 102  9.1865774e+02 6.20e-01 2.48e+07  -1.0 2.48e+08    -  3.76e-02 1.89e-04h  5
 103  9.1868411e+02 6.20e-01 3.61e+07  -1.0 2.77e+08    -  1.39e-03 8.83e-05h  6
 104  9.1866575e+02 6.20e-01 3.62e+07  -1.0 2.96e+08    -  1.69e-05 1.08e-05f  9
 105r 9.1866575e+02 6.20e-01 1.00e+03  -0.2 0.00e+00    -  0.00e+00 6.07e-08R  2
 106r 9.1866593e+02 6.20e-01 9.97e+02  -0.2 5.99e+02    -  2.17e-01 2.28e-03f  1
 107r 9.1866788e+02 6.20e-01 9.80e+02  -0.2 1.01e+03    -  1.13e-01 1.71e-02f  1
 108r 9.1868614e+02 6.22e-01 8.73e+02  -0.2 9.64e+02    -  4.30e-02 1.42e-01f  1
 109r 9.1868614e+02 6.22e-01 8.52e+02  -0.2 3.51e+03  -2.0 1.08e-03 5.76e-03f  1
iter    objective    inf_pr   inf_du lg(mu)  ||d||  lg(rg) alpha_du alpha_pr  ls
 110r 9.1868614e+02 6.22e-01 8.85e+02  -0.2 6.71e+01  -1.6 2.91e-01 8.43e-03f  1
 111r 9.1868614e+02 6.22e-01 8.87e+02  -0.2 1.99e+00   1.6 5.40e-03 1.08e-01f  1
 112r 9.1869132e+02 8.82e+00 6.88e+02  -0.2 9.26e+02    -  4.95e-01 6.97e-02f  1
 113r 9.1869132e+02 4.97e+00 4.23e+02  -0.2 8.82e+00   1.1 8.42e-01 4.36e-01f  1
 114r 9.1869132e+02 6.25e-01 2.19e+02  -0.2 4.97e+00   0.6 7.59e-01 1.00e+00f  1
 115r 9.1869201e+02 6.25e-01 1.66e+03  -0.2 1.75e+03    -  1.04e-01 8.57e-03f  1
 116r 9.1869201e+02 6.25e-01 1.66e+02  -0.2 1.06e+01   0.1 9.56e-01 8.59e-01f  1
 117r 9.1869201e+02 6.25e-01 6.61e+01  -0.2 2.90e+01  -0.3 2.40e-01 3.03e-01f  1
 118r 9.1869444e+02 6.25e-01 9.59e+01  -0.2 8.24e+02    -  1.73e-01 6.10e-02f  1
 119r 9.1869231e+02 6.23e-01 5.24e+02  -0.2 7.55e+02    -  5.96e-01 1.39e-01f  1
iter    objective    inf_pr   inf_du lg(mu)  ||d||  lg(rg) alpha_du alpha_pr  ls
 120r 9.1871555e+02 5.05e-01 2.49e+02  -0.2 6.58e+02    -  1.05e-01 1.00e+00f  1
 121  1.1403061e+03 5.02e-01 1.14e+06  -1.0 7.30e+07    -  4.15e-02 7.34e-03h  1
 122  1.1418269e+03 5.02e-01 1.14e+06  -1.0 5.59e+07    -  6.19e-02 6.79e-05h  1
 123  1.1499155e+03 5.02e-01 1.14e+06  -1.0 5.09e+07    -  3.43e-02 2.08e-04h  4
 124  1.1584198e+03 5.01e-01 1.14e+06  -1.0 5.17e+07    -  3.40e-02 2.16e-04h  8
 125  1.1669251e+03 5.01e-01 1.14e+06  -1.0 5.25e+07    -  3.37e-02 2.14e-04h  8
 126  1.1754312e+03 5.01e-01 1.14e+06  -1.0 5.34e+07    -  3.34e-02 2.11e-04h  8
 127  1.1839385e+03 5.01e-01 1.14e+06  -1.0 5.42e+07    -  3.84e-02 2.09e-04h  8
 128  1.1924473e+03 5.01e-01 1.14e+06  -1.0 5.52e+07    -  3.83e-02 2.07e-04h  8
 129  1.2009580e+03 5.01e-01 1.14e+06  -1.0 5.61e+07    -  3.96e-02 2.04e-04h  8
iter    objective    inf_pr   inf_du lg(mu)  ||d||  lg(rg) alpha_du alpha_pr  ls
 130  1.2020195e+03 5.01e-01 1.14e+06  -1.0 5.71e+07    -  4.11e-02 2.53e-05h 11
 131  1.2025503e+03 5.01e-01 1.14e+06  -1.0 5.73e+07    -  1.38e-02 1.26e-05h 12
 132r 1.2025503e+03 5.01e-01 1.00e+03  -0.3 0.00e+00    -  0.00e+00 4.16e-07R 17
 133r 1.2025598e+03 5.01e-01 8.84e+02  -0.3 1.15e+03    -  4.99e-01 1.15e-01f  1
 134r 1.2026336e+03 5.00e-01 9.71e+01  -0.3 1.01e+03    -  9.89e-01 8.90e-01f  1
 135r 1.2026462e+03 5.00e-01 3.24e+00  -0.3 1.09e+02    -  8.84e-01 1.00e+00f  1
 136r 1.2027000e+03 4.99e-01 9.16e+02  -0.3 2.08e+02    -  5.40e-02 1.00e+00f  1
 137r 1.2027000e+03 4.99e-01 1.61e+03  -0.3 1.44e+00   0.0 1.16e-01 4.57e-01f  1
 138r 1.2027000e+03 4.99e-01 7.15e+02  -0.3 9.28e-02   3.1 9.90e-01 5.44e-01f  1
 139r 1.2027000e+03 4.99e-01 2.41e+02  -0.3 7.72e-02   2.7 9.38e-01 6.88e-01f  1
iter    objective    inf_pr   inf_du lg(mu)  ||d||  lg(rg) alpha_du alpha_pr  ls
 140r 1.2027000e+03 4.99e-01 4.54e+02  -0.3 4.10e-02   3.1 9.92e-01 7.09e-01f  1
 141r 1.2027000e+03 4.99e-01 7.14e+01  -0.3 2.15e-02   3.5 1.00e+00 1.00e+00f  1
 142r 1.2027000e+03 4.99e-01 1.87e+02  -0.3 3.54e-01   3.0 8.58e-02 2.22e-01f  1
 143r 1.2027000e+03 4.99e-01 3.49e+02  -0.3 1.21e-01   3.5 1.00e+00 1.00e+00f  1
 144r 1.2027000e+03 4.99e-01 6.03e+02  -0.3 4.37e-01   3.0 3.09e-01 1.35e-02f  1
 145r 1.2027000e+03 4.99e-01 9.60e+01  -0.3 3.76e-02   3.4 1.00e+00 1.00e+00f  1
 146r 1.2027000e+03 4.99e-01 3.07e+01  -0.3 3.60e-02   2.9 1.00e+00 1.00e+00f  1
 147r 1.2027000e+03 4.99e-01 3.48e+01  -0.3 1.53e-02   3.4 1.00e+00 1.00e+00f  1
 148r 1.2027000e+03 4.99e-01 2.10e+02  -0.3 8.34e-02   2.9 1.00e+00 2.99e-01f  1
 149r 1.2027000e+03 4.99e-01 3.26e+02  -0.3 1.09e-01   2.4 1.00e+00 4.62e-01f  1
iter    objective    inf_pr   inf_du lg(mu)  ||d||  lg(rg) alpha_du alpha_pr  ls
 150r 1.2027000e+03 4.99e-01 5.83e+00  -0.3 6.93e-02   1.9 1.00e+00 1.00e+00f  1
 151r 1.2027000e+03 5.00e-01 2.86e+01  -1.0 2.21e-01   1.4 1.00e+00 9.49e-01f  1
 152r 1.2027000e+03 5.00e-01 3.08e+02  -1.0 3.34e-02   1.0 7.80e-01 1.00e+00f  1
 153r 1.2027000e+03 5.00e-01 5.39e+02  -1.0 9.59e-02   0.5 1.00e+00 4.65e-01f  2
 154r 1.2027000e+03 5.00e-01 3.00e-01  -1.0 2.88e-01   0.0 1.00e+00 1.00e+00f  1
 155r 1.2027000e+03 5.00e-01 1.56e+02  -2.5 8.73e-01  -0.5 9.94e-01 7.21e-01f  1
 156r 1.2027000e+03 5.00e-01 2.44e+01  -2.5 2.59e+00  -0.9 6.78e-01 1.00e+00f  1
 157r 1.2027000e+03 5.00e-01 2.06e+00  -2.5 8.32e+00  -1.4 1.00e+00 1.00e+00f  1
 158r 1.2027000e+03 5.00e-01 3.26e-01  -2.5 3.18e+00  -1.0 1.00e+00 1.00e+00f  1
 159r 1.2027000e+03 5.00e-01 2.55e+01  -2.5 1.02e+01  -1.5 5.65e-01 6.62e-01f  1
iter    objective    inf_pr   inf_du lg(mu)  ||d||  lg(rg) alpha_du alpha_pr  ls
 160r 1.2027000e+03 5.00e-01 1.56e+01  -2.5 3.72e+00  -1.0 2.83e-02 6.85e-03f  1
 161r 1.2027000e+03 5.00e-01 6.66e-01  -2.5 3.42e-01   0.3 1.00e+00 1.00e+00f  1
 162r 1.2027000e+03 5.00e-01 3.03e+01  -2.5 3.16e-01  -0.2 7.51e-01 2.85e-01f  1
 163r 1.2027000e+03 5.00e-01 2.54e-01  -2.5 9.91e-01  -0.7 1.00e+00 1.00e+00f  1
 164r 1.2027000e+03 5.00e-01 1.58e+02  -2.5 4.04e+00  -1.1 1.00e+00 2.80e-01f  1
 165r 1.2026492e+03 4.99e-01 1.22e+02  -2.5 1.89e+04    -  1.02e-01 6.67e-02f  1
 166r 1.2026415e+03 4.99e-01 1.52e+02  -2.5 1.65e+04    -  4.33e-01 1.08e-02f  1
 167r 1.2026386e+03 4.99e-01 2.24e+02  -2.5 1.50e+04    -  1.89e-01 4.46e-03f  1
 168r 1.2026134e+03 4.98e-01 1.70e+03  -2.5 7.50e+03    -  4.45e-01 3.75e-02f  1
 169r 1.2025694e+03 4.97e-01 1.52e+03  -2.5 7.41e+03    -  4.35e-03 6.35e-02f  1
iter    objective    inf_pr   inf_du lg(mu)  ||d||  lg(rg) alpha_du alpha_pr  ls
 170r 1.2025434e+03 4.97e-01 1.80e+03  -2.5 6.78e+03    -  4.96e-01 3.18e-02f  1
 171r 1.2020898e+03 4.94e-01 1.01e+03  -2.5 5.85e+03    -  3.79e-01 4.93e-01f  1
 172r 1.2017346e+03 4.94e-01 6.96e+02  -2.5 2.97e+03    -  5.74e-02 1.00e+00f  1
 173r 1.2017477e+03 4.94e-01 4.39e+02  -2.5 8.17e+02    -  1.59e-01 1.00e+00h  1
 174r 1.2017564e+03 4.94e-01 6.50e+01  -2.5 5.51e+02    -  7.44e-01 1.00e+00f  1
 175r 1.2017594e+03 4.94e-01 1.93e-05  -2.5 1.51e+02    -  1.00e+00 1.00e+00f  1
 176r 1.2017591e+03 4.94e-01 2.00e-02  -5.7 1.94e+01    -  9.99e-01 9.94e-01f  1
 177r 1.2017590e+03 4.94e-01 8.84e-03  -5.7 3.68e-01  -1.6 1.00e+00 1.00e+00f  1
 178r 1.2017590e+03 4.94e-01 8.84e-03  -5.7 1.10e+00  -2.1 1.00e+00 1.00e+00f  1
 179r 1.2017588e+03 4.94e-01 8.83e-03  -5.7 3.31e+00  -2.6 1.00e+00 1.00e+00f  1
iter    objective    inf_pr   inf_du lg(mu)  ||d||  lg(rg) alpha_du alpha_pr  ls
 180r 1.2017583e+03 4.94e-01 8.83e-03  -5.7 9.92e+00  -3.1 1.00e+00 1.00e+00f  1
 181r 1.2017567e+03 4.94e-01 8.80e-03  -5.7 2.97e+01  -3.5 1.00e+00 1.00e+00f  1
 182r 1.2017521e+03 4.94e-01 8.72e-03  -5.7 8.82e+01  -4.0 1.00e+00 1.00e+00f  1
 183r 1.2017385e+03 4.94e-01 8.50e-03  -5.7 2.58e+02  -4.5 1.00e+00 1.00e+00f  1
 184r 1.2016998e+03 4.94e-01 7.93e-03  -5.7 7.19e+02  -5.0 1.00e+00 1.00e+00f  1
 185r 1.2015983e+03 4.94e-01 6.69e-03  -5.7 1.79e+03  -5.4 1.00e+00 1.00e+00f  1
 186r 1.2013698e+03 4.94e-01 4.78e-03  -5.7 3.63e+03  -5.9 1.00e+00 1.00e+00f  1
 187r 1.2009487e+03 4.94e-01 1.75e-02  -5.7 6.22e+03  -6.4 1.00e+00 1.00e+00f  1
 188r 1.2006787e+03 4.94e-01 1.14e+01  -5.7 1.05e+04  -6.9 1.00e+00 4.17e-01f  1
 189r 1.2006786e+03 4.94e-01 2.00e+03  -5.7 2.02e+05    -  4.52e-01 9.75e-07f  1
iter    objective    inf_pr   inf_du lg(mu)  ||d||  lg(rg) alpha_du alpha_pr  ls
 190r 1.1994666e+03 4.94e-01 1.83e+03  -5.7 2.01e+05    -  1.54e-06 3.78e-02f  1
 191r 1.1994661e+03 4.94e-01 2.00e+03  -5.7 1.80e+05    -  8.88e-01 1.71e-05f  1
 192r 1.1988863e+03 4.94e-01 1.96e+03  -5.7 1.79e+05    -  1.46e-05 1.69e-02f  1
 193r 1.1988842e+03 4.94e-01 1.96e+03  -5.7 1.25e+04  -7.3 7.85e-02 2.04e-03f  1
 194r 1.1987735e+03 4.94e-01 1.86e+03  -5.7 2.37e+04  -7.8 2.53e-03 5.11e-02f  1
 195r 1.1985717e+03 4.94e-01 1.85e+03  -5.7 1.21e+05    -  1.00e+00 5.56e-03f  1
 196r 1.1965843e+03 4.94e-01 1.74e+03  -5.7 1.08e+05    -  1.00e+00 5.71e-02f  1
 197r 1.1861975e+03 4.93e-01 1.16e+03  -5.7 1.03e+05    -  2.25e-01 3.37e-01f  1
 198r 1.1850274e+03 4.93e-01 1.10e+03  -5.7 7.47e+04    -  1.00e+00 5.83e-02f  1
 199r 1.1842063e+03 4.93e-01 1.07e+03  -5.7 7.11e+04    -  3.97e-01 4.44e-02f  1
iter    objective    inf_pr   inf_du lg(mu)  ||d||  lg(rg) alpha_du alpha_pr  ls
 200r 1.1842061e+03 4.93e-01 9.55e+02  -5.7 6.78e+04    -  1.00e+00 8.07e-06f  1
 201r 1.1834071e+03 4.93e-01 9.11e+02  -5.7 5.57e+04    -  1.00e+00 4.59e-02f  1
 202r 1.1788049e+03 4.93e-01 6.63e+02  -5.7 5.32e+04    -  1.00e+00 2.86e-01f  1
 203r 1.1787877e+03 4.93e-01 6.50e+02  -5.7 3.86e+04    -  1.00e+00 1.42e-03f  1
 204r 1.1748198e+03 4.93e-01 4.34e+02  -5.7 3.86e+04    -  1.00e+00 3.33e-01f  1
 205r 1.1734328e+03 4.93e-01 3.51e+02  -5.7 3.46e+04    -  1.00e+00 1.92e-01f  1
 206r 1.1680759e+03 4.93e-01 5.81e+01  -5.7 2.13e+04    -  1.00e+00 8.34e-01f  1
 207r 1.1672175e+03 4.93e-01 3.98e+00  -5.7 1.52e+04    -  1.00e+00 9.66e-01f  1
 208r 1.1671618e+03 4.93e-01 6.70e+02  -5.7 7.02e+04    -  1.00e+00 6.25e-02h  5
 209r 1.1669930e+03 4.93e-01 6.71e+00  -5.7 1.20e+04    -  1.00e+00 1.00e+00h  1
iter    objective    inf_pr   inf_du lg(mu)  ||d||  lg(rg) alpha_du alpha_pr  ls
 210r 1.1672832e+03 4.93e-01 7.31e+01  -5.7 3.30e+04    -  1.00e+00 7.68e-01f  1
 211r 1.1672215e+03 4.93e-01 7.75e+02  -5.7 8.21e+04    -  9.72e-01 6.25e-02h  5
 212r 1.1672003e+03 4.93e-01 5.70e+02  -5.7 5.74e+04    -  1.00e+00 3.12e-02h  6
 213r 1.1671174e+03 4.93e-01 1.35e+02  -5.7 2.12e+04    -  1.00e+00 3.40e-01h  1
 214r 1.1670856e+03 4.93e-01 3.17e+00  -5.7 2.88e+03    -  1.00e+00 1.00e+00h  1
 215r 1.1670727e+03 4.93e-01 3.55e+02  -5.7 3.70e+04    -  1.00e+00 3.12e-02h  6
 216r 1.1668555e+03 4.93e-01 9.13e+00  -5.7 1.22e+04    -  1.00e+00 1.00e+00H  1
 217r 1.1673308e+03 4.93e-01 1.04e+02  -5.7 5.44e+04    -  1.00e+00 7.87e-01f  1
 218r 1.1672005e+03 4.93e-01 7.28e+02  -5.7 8.62e+04    -  9.59e-01 1.25e-01h  4
 219r 1.1671843e+03 4.93e-01 1.86e+00  -5.7 1.38e+03    -  1.00e+00 1.00e+00h  1
iter    objective    inf_pr   inf_du lg(mu)  ||d||  lg(rg) alpha_du alpha_pr  ls
 220r 1.1670372e+03 4.93e-01 2.27e+00  -5.7 1.30e+04    -  1.00e+00 1.00e+00h  1
 221r 1.1670145e+03 4.93e-01 5.58e-02  -5.7 2.11e+03    -  1.00e+00 1.00e+00f  1
 222r 1.1670141e+03 4.93e-01 9.46e-05  -5.7 4.18e+01    -  1.00e+00 1.00e+00h  1
 223r 1.1670141e+03 4.93e-01 2.73e-09  -5.7 1.00e-02    -  1.00e+00 1.00e+00h  1
 224r 1.1670145e+03 4.93e-01 3.06e-03  -8.6 1.31e+01    -  1.00e+00 1.00e+00f  1
 225r 1.1670090e+03 4.93e-01 1.80e+03  -8.6 5.69e+04  -8.3 1.00e+00 7.96e-04f  1
 226r 1.1668245e+03 4.93e-01 1.94e+03  -8.6 1.91e+05  -8.8 1.00e+00 1.06e-02f  1
 227r 1.1647874e+03 4.93e-01 1.88e+03  -8.6 2.22e+05  -9.3 7.78e-02 4.15e-02f  1
 228r 1.1631350e+03 4.93e-01 1.86e+03  -8.6 6.50e+05  -9.7 2.39e-09 1.00e-02f  1
 229r 1.1631349e+03 4.93e-01 1.86e+03  -8.6 2.46e+05  -9.3 1.00e+00 3.23e-06f  1
iter    objective    inf_pr   inf_du lg(mu)  ||d||  lg(rg) alpha_du alpha_pr  ls
 230r 1.1472222e+03 4.92e-01 1.77e+03  -8.6 7.99e+05  -9.8 4.04e-01 9.53e-02f  1
 231r 1.1366235e+03 4.92e-01 1.30e+03  -8.6 2.35e+05  -9.4 1.00e+00 1.97e-01f  1
 232r 1.1366235e+03 4.92e-01 1.46e+03  -8.6 1.24e+06  -9.8 2.21e-01 3.81e-08f  1
 233r 1.1332885e+03 4.92e-01 1.37e+03  -8.6 2.83e+05  -9.4 1.62e-01 5.65e-02f  1
 234r 1.1332884e+03 4.92e-01 1.37e+03  -8.6 1.74e+06  -9.9 1.00e+00 5.14e-07f  1
 235r 1.1331136e+03 4.92e-01 1.37e+03  -8.6 3.37e+05  -9.5 1.00e+00 2.75e-03f  1
 236r 1.1069787e+03 4.92e-01 1.21e+03  -8.6 2.43e+06  -9.9 2.41e-01 1.14e-01f  1
 237r 1.1069787e+03 4.92e-01 1.21e+03  -8.6 1.01e+06  -9.5 1.00e+00 6.03e-07f  1
 238r 1.1049364e+03 4.92e-01 1.11e+03  -8.6 1.96e+05  -9.1 1.00e+00 8.57e-02f  1
 239r 1.1049360e+03 4.92e-01 1.14e+03  -8.6 3.18e+05  -9.6 1.00e+00 5.04e-06f  1
iter    objective    inf_pr   inf_du lg(mu)  ||d||  lg(rg) alpha_du alpha_pr  ls
 240r 1.1036577e+03 4.92e-01 1.30e+03  -8.6 2.01e+06 -10.0 1.00e+00 5.34e-03f  1
 241r 1.0842354e+03 4.92e-01 1.31e+03  -8.6 3.09e+07 -10.5 3.82e-02 1.03e-02f  1
 242r 1.0842354e+03 4.92e-01 1.31e+03  -8.6 6.58e+05 -10.1 0.00e+00 2.45e-13R 15
 243r 1.0842354e+03 4.92e-01 1.88e+03  -8.6 3.08e+06 -10.6 2.93e-01 1.20e-12f 11
 244r 1.0540154e+03 4.91e-01 1.61e+03  -8.6 7.57e+05 -10.1 1.54e-01 1.45e-01f  2
 245r 1.0499034e+03 4.91e-01 1.55e+03  -8.6 6.06e+06 -10.6 9.40e-03 1.83e-02f  2
 246r 1.0388836e+03 4.91e-01 1.46e+03  -8.6 1.14e+06 -10.2 2.41e-01 5.69e-02f  1
 247r 1.0388836e+03 4.91e-01 1.46e+03  -8.6 3.78e+05  -9.8 1.00e+00 8.63e-08f  1
 248r 1.0386026e+03 4.91e-01 1.46e+03  -8.6 1.54e+06 -10.2 1.00e+00 1.48e-03f  1
 249r 1.0369932e+03 4.90e-01 1.43e+03  -8.6 4.06e+05  -9.8 1.00e+00 2.29e-02f  1
iter    objective    inf_pr   inf_du lg(mu)  ||d||  lg(rg) alpha_du alpha_pr  ls
 250r 1.0247559e+03 4.90e-01 1.66e+03  -8.6 1.96e+06 -10.3 1.00e+00 6.03e-02f  1
 251r 1.0247545e+03 4.90e-01 1.26e+03  -8.6 5.23e+05  -9.9 1.00e+00 1.98e-05f  1
 252r 9.9386912e+02 4.90e-01 1.26e+03  -8.6 4.11e+06 -10.3 1.00e+00 1.28e-01f  1
 253r 9.9386912e+02 4.90e-01 1.82e+03  -8.6 3.83e+06 -10.8 2.80e-01 1.96e-09h  1
 254r 9.9335252e+02 4.90e-01 1.63e+03  -8.6 1.56e+06 -10.4 1.00e+00 4.65e-03f  1
 255r 1.0162183e+03 4.90e-01 1.71e+03  -8.6 4.93e+06 -10.9 6.44e-02 2.34e-02f  1
 256r 1.0162170e+03 4.90e-01 1.71e+03  -8.6 6.40e+05 -10.4 1.00e+00 1.55e-05f  1
 257r 1.0161521e+03 4.90e-01 1.69e+03  -8.6 1.56e+06 -10.9 1.00e+00 1.70e-04f  1
 258r 1.0018269e+03 4.89e-01 1.48e+03  -8.6 4.06e+05 -10.5 5.52e-01 1.93e-01f  1
 259r 1.0013754e+03 4.89e-01 1.17e+03  -8.6 2.22e+06 -11.0 5.00e-01 8.52e-04f  1
iter    objective    inf_pr   inf_du lg(mu)  ||d||  lg(rg) alpha_du alpha_pr  ls
 260r 1.0013754e+03 4.89e-01 1.17e+03  -8.6 4.63e+05 -10.5 0.00e+00 5.15e-13R 14
 261r 8.1106888e+02 4.89e-01 1.29e+03  -8.6 6.45e+06 -11.0 2.94e-10 1.31e-01f  1
 262r 8.1106888e+02 4.89e-01 7.07e+02  -8.6 3.53e-02   2.8 8.19e-04 4.50e-03f  1
 263r 8.1106888e+02 4.89e-01 9.43e+02  -8.6 5.71e-01   2.3 3.32e-02 5.54e-03f  1
 264r 8.1106888e+02 4.89e-01 1.86e+03  -8.6 4.49e-02   2.8 6.82e-03 2.43e-02f  1
 265r 8.1106888e+02 4.89e-01 1.85e+03  -8.6 1.97e+00   2.3 1.92e-02 5.91e-03f  1
 266r 8.1106888e+02 4.89e-01 1.63e+03  -8.6 2.62e-01   1.8 2.04e-02 1.18e-01f  1
 267r 8.1106888e+02 4.89e-01 1.63e+03  -8.6 1.69e+00   1.3 7.56e-03 1.35e-03f  1
 268r 8.1106888e+02 4.89e-01 3.66e+03  -8.6 1.83e+00   0.9 8.03e-04 2.69e-01f  1
 269r 8.1106888e+02 4.89e-01 5.61e+03  -8.6 3.68e-01   0.4 5.59e-03 2.55e-01f  1
iter    objective    inf_pr   inf_du lg(mu)  ||d||  lg(rg) alpha_du alpha_pr  ls
 270r 8.1106888e+02 4.89e-01 5.06e+03  -8.6 7.28e-01  -0.1 3.54e-02 9.82e-02f  1
 271r 8.1106888e+02 4.89e-01 5.72e+03  -8.6 7.70e-01  -0.6 9.00e-03 3.33e-01f  1
 272r 8.1106888e+02 4.89e-01 5.60e+03  -8.6 2.86e+00  -1.0 3.24e-03 2.04e-02f  1
 273r 8.1106888e+02 4.89e-01 7.54e+03  -8.6 4.18e-01  -1.5 1.45e-02 3.16e-01f  1
 274r 8.1106888e+02 4.89e-01 7.35e+03  -8.6 2.08e+00  -2.0 7.84e-03 2.62e-02f  1
 275r 8.1106888e+02 4.89e-01 7.99e+03  -8.6 1.88e+00  -2.5 4.10e-03 1.35e-01f  1
 276r 8.1106887e+02 4.89e-01 7.60e+03  -8.6 1.13e+01  -3.0 7.76e-03 4.87e-02f  1
 277r 8.1106886e+02 4.89e-01 6.46e+03  -8.6 1.40e+01  -3.4 3.92e-02 1.50e-01f  1
 278r 8.1106882e+02 4.89e-01 5.71e+03  -8.6 3.29e+01  -3.9 1.20e-02 1.16e-01f  1
 279r 8.1106853e+02 4.89e-01 4.20e+03  -8.6 4.77e+01  -4.4 1.88e-02 3.28e-01f  1
iter    objective    inf_pr   inf_du lg(mu)  ||d||  lg(rg) alpha_du alpha_pr  ls
 280r 8.1106813e+02 4.89e-01 3.56e+03  -8.6 6.54e+01  -4.9 9.15e-02 1.53e-01f  1
 281r 8.1106456e+02 4.89e-01 1.91e+03  -8.6 1.96e+02  -5.3 1.83e-01 4.64e-01f  1
 282r 8.1106444e+02 4.89e-01 1.90e+03  -8.6 5.87e+02  -5.8 5.21e-01 4.98e-03f  1
 283r 8.1106415e+02 4.89e-01 2.18e+03  -8.6 1.45e+03  -6.3 9.17e-01 4.41e-03f  1
 284r 8.1105437e+02 4.89e-01 2.29e+03  -8.6 4.09e+03  -6.8 1.00e+00 5.12e-02f  1
 285r 8.1105388e+02 4.89e-01 2.30e+03  -8.6 1.62e+03  -6.3 7.99e-01 6.64e-03f  1
 286r 8.1098721e+02 4.89e-01 1.76e+03  -8.6 4.52e+03  -6.8 1.00e+00 3.10e-01f  1
 287r 8.1093933e+02 4.89e-01 7.32e+02  -8.6 1.76e+03  -6.4 7.24e-01 5.85e-01f  1
 288r 8.1091716e+02 4.89e-01 4.04e+02  -8.6 6.61e+02  -6.0 1.00e+00 7.26e-01f  1
 289r 8.1086816e+02 4.89e-01 3.63e+02  -8.6 1.90e+03  -6.5 1.00e+00 5.43e-01f  1
iter    objective    inf_pr   inf_du lg(mu)  ||d||  lg(rg) alpha_du alpha_pr  ls
 290r 8.1078142e+02 4.89e-01 6.07e+02  -8.6 5.11e+03  -6.9 1.00e+00 3.36e-01f  1
 291r 8.1072822e+02 4.89e-01 1.56e+03  -8.6 1.19e+04  -7.4 1.00e+00 8.53e-02f  1
 292r 8.1057865e+02 4.89e-01 1.21e+03  -8.6 2.37e+04  -7.9 1.00e+00 1.08e-01f  1
 293r 8.1047361e+02 4.89e-01 1.27e+03  -8.6 4.40e+04  -8.4 1.00e+00 3.81e-02f  1
 294r 8.1040728e+02 4.89e-01 1.60e+03  -8.6 1.13e+05  -8.8 1.00e+00 1.14e-02f  1
 295r 8.1032180e+02 4.89e-01 1.75e+03  -8.6 2.40e+05  -9.3 1.00e+00 5.27e-03f  1
 296r 8.1008861e+02 4.89e-01 1.63e+03  -8.6 5.56e+05  -9.8 1.00e+00 5.14e-03f  1
 297r 8.0959572e+02 4.89e-01 1.97e+03  -8.6 6.98e+05 -10.3 6.12e-01 5.17e-03f  1
 298r 8.0734351e+02 4.89e-01 1.47e+03  -8.6 4.76e+05  -9.8 1.00e+00 5.72e-02f  1
 299r 8.0733178e+02 4.89e-01 1.33e+03  -8.6 6.21e+05 -10.3 1.00e+00 9.11e-05f  1
iter    objective    inf_pr   inf_du lg(mu)  ||d||  lg(rg) alpha_du alpha_pr  ls
 300r 7.7241346e+02 4.89e-01 1.38e+02  -8.6 1.75e+05  -9.9 1.00e+00 8.95e-01f  1
 301r 7.7241346e+02 4.89e-01 4.12e+02  -8.6 1.07e+06 -10.4 0.00e+00 6.30e-12R 13
 302r 7.7241346e+02 4.89e-01 4.12e+02  -8.6 2.35e+05  -9.9 1.00e+00 2.86e-08f  1
 303r 6.9569656e+02 4.89e-01 3.27e+02  -8.6 1.44e+06 -10.4 2.06e-01 3.16e-01f  1
 304r 6.9569656e+02 4.89e-01 3.27e+02  -8.6 5.74e+04  -9.1 5.07e-09 4.50e-09h  2
 305r 6.9569656e+02 4.89e-01 3.27e+02  -8.6 4.17e+04  -6.9 1.98e-11 1.69e-09h  2
 306r 6.9569656e+02 4.89e-01 3.27e+02  -8.6 1.83e+02  -1.0 8.79e-07 2.98e-10h  2
 307r 6.9569657e+02 4.89e-01 3.27e+02  -8.6 4.52e+05    -  6.16e-09 1.07e-07f  1
 308r 6.9569793e+02 4.89e-01 2.00e+03  -8.6 4.52e+05    -  1.42e-02 3.30e-05f  1
 309r 6.9569793e+02 4.89e-01 1.73e+03  -8.6 5.50e+02  -1.5 1.35e-11 7.04e-04f  1
iter    objective    inf_pr   inf_du lg(mu)  ||d||  lg(rg) alpha_du alpha_pr  ls
 310r 6.9569793e+02 4.89e-01 1.73e+03  -8.6 8.41e-01  -2.0 0.00e+00 6.43e-14R 17
 311r 6.9569793e+02 4.89e-01 1.73e+03  -8.6 5.97e-01   1.2 7.92e-03 4.49e-03f  1
 312r 6.9569793e+02 4.89e-01 1.71e+03  -8.6 1.34e-01   0.7 4.91e-02 1.08e-02f  1
 313r 6.9569793e+02 4.89e-01 1.68e+03  -8.6 3.85e-02   1.1 1.16e-02 1.56e-02f  1
 314r 6.9569793e+02 4.89e-01 1.28e+03  -8.6 5.73e-02   0.6 2.66e-01 2.37e-01f  1
In iteration 314, 1 Slack too small, adjusting variable bound
 315r 6.9569793e+02 4.89e-01 1.28e+03  -8.6 4.56e+05    -  5.01e-08 1.21e-08f  1
 316r 6.9583384e+02 4.89e-01 1.32e+03  -8.6 4.56e+05    -  7.92e-11 7.35e-03f  1
 317r 6.9583384e+02 4.89e-01 2.22e+03  -8.6 6.66e-01   0.2 2.48e-04 5.48e-01f  1
 318r 6.9583384e+02 4.89e-01 3.56e+03  -8.6 1.36e+00  -0.3 1.46e-03 9.14e-02f  1
 319r 6.9583384e+02 4.89e-01 7.25e+03  -8.6 2.05e+00  -0.8 3.87e-03 2.74e-01f  1
iter    objective    inf_pr   inf_du lg(mu)  ||d||  lg(rg) alpha_du alpha_pr  ls
 320r 6.9583384e+02 4.89e-01 6.81e+03  -8.6 2.02e+00  -1.3 9.77e-03 6.10e-02f  1
 321r 6.9583384e+02 4.89e-01 5.10e+03  -8.6 2.02e+00  -1.7 2.55e-02 2.67e-01f  1
 322r 6.9583384e+02 4.89e-01 4.69e+03  -8.6 1.50e+00  -2.2 1.28e-02 1.01e-01f  1
 323r 6.9583384e+02 4.89e-01 3.43e+03  -8.6 1.35e+00  -2.7 7.28e-02 2.68e-01f  1
 324r 6.9583385e+02 4.89e-01 2.69e+03  -8.6 1.94e+00  -3.2 2.12e-02 2.39e-01f  1
 325r 6.9583386e+02 4.89e-01 5.15e+03  -8.6 4.60e+00  -3.7 2.37e-02 4.79e-01f  1
 326r 6.9583388e+02 4.89e-01 7.22e+03  -8.6 1.95e+01  -4.1 9.81e-03 2.28e-01f  1
 327r 6.9583390e+02 4.89e-01 6.69e+03  -8.6 3.77e+01  -4.6 3.68e-02 7.33e-02f  1
 328r 6.9583391e+02 4.89e-01 6.59e+03  -8.6 1.13e+02  -5.1 1.51e-01 1.44e-02f  1
 329r 6.9583406e+02 4.89e-01 6.22e+03  -8.6 1.74e+02  -5.6 3.41e-01 5.58e-02f  1
iter    objective    inf_pr   inf_du lg(mu)  ||d||  lg(rg) alpha_du alpha_pr  ls
 330r 6.9583410e+02 4.89e-01 6.19e+03  -8.6 5.23e+02  -6.0 9.44e-01 5.00e-03f  1
 331r 6.9583431e+02 4.89e-01 6.15e+03  -8.6 6.71e+02  -6.5 8.66e-01 9.05e-03f  1
 332r 6.9583505e+02 4.89e-01 6.09e+03  -8.6 1.75e+03  -7.0 9.38e-03 9.83e-03f  1
 333r 6.9583590e+02 4.89e-01 6.58e+03  -8.6 2.41e+03  -7.5 1.00e+00 3.45e-03f  1
 334r 6.9583966e+02 4.89e-01 6.57e+03  -8.6 7.23e+03  -8.0 8.82e-01 4.70e-03f  1
 335r 6.9741735e+02 4.89e-01 2.70e+03  -8.6 2.18e+04  -8.4 1.00e+00 5.97e-01f  1
 336r 7.0057927e+02 4.89e-01 1.76e+03  -8.6 6.67e+04  -8.9 1.00e+00 3.55e-01f  1
 337r 7.0057927e+02 4.89e-01 1.76e+03  -8.6 4.36e+05    -  0.00e+00 5.50e-14R 18
 338r 7.0057927e+02 4.89e-01 2.12e+03  -8.6 4.36e+05    -  1.00e+00 7.03e-12f 11
 339r 7.5529107e+02 4.85e-01 4.22e+00  -8.6 4.36e+05    -  1.00e+00 9.98e-01f  1
iter    objective    inf_pr   inf_du lg(mu)  ||d||  lg(rg) alpha_du alpha_pr  ls
 340r 7.5169599e+02 4.83e-01 8.18e+00  -8.6 5.43e+04    -  1.00e+00 9.66e-01f  1
 341r 7.5218915e+02 4.83e-01 2.22e-03  -8.6 3.46e+03    -  1.00e+00 1.00e+00h  1

Number of Iterations....: 341

                                   (scaled)                 (unscaled)
Objective...............:   7.5219286499487509e+02    7.5219286499487509e+02
Dual infeasibility......:   7.1263841651486863e-04    7.1263841651486863e-04
Constraint violation....:   4.8339814197316000e-01    4.8339814197316000e-01
Complementarity.........:   3.6707575476256011e-09    3.6707575476256011e-09
Overall NLP error.......:   4.8339814197316000e-01    4.8339814197316000e-01


Number of objective function evaluations             = 841
Number of objective gradient evaluations             = 78
Number of equality constraint evaluations            = 847
Number of inequality constraint evaluations          = 0
Number of equality constraint Jacobian evaluations   = 358
Number of inequality constraint Jacobian evaluations = 0
Number of Lagrangian Hessian evaluations             = 342
Total CPU secs in IPOPT (w/o function evaluations)   =      0.621
Total CPU secs in NLP function evaluations           =     10.521

EXIT: Converged to a point of local infeasibility. Problem may be infeasible.
